Problem:    
Rows:       248
Columns:    89 (72 integer, 72 binary)
Non-zeros:  820
Status:     INTEGER OPTIMAL
Objective:  value = 195.477647 (MINimum)

   No.   Row name        Activity     Lower bound   Upper bound
------ ------------    ------------- ------------- -------------
     1 r.5                   195.478             0               
     2 r.6                  -1.67016      -1973.38               
     3 r.7                   2195.48             0               
     4 r.8                   -1958.7      -1959.87               
     5 r.9                   195.478             0               
     6 r.10                 -1776.26      -1971.74               
     7 r.11                  2195.48             0               
     8 r.12                 -1878.93      -1958.66               
     9 r.13                  2195.48             0               
    10 r.14                 -1907.83      -1952.27               
    11 r.15                  195.478             0               
    12 r.16                   4.1656      -1931.43               
    13 r.17                  2195.48             0               
    14 r.18                 -1967.56      -1974.68               
    15 r.19                  195.478             0               
    16 r.20                  13.1656       -1961.3               
    17 r.21                  195.478             0               
    18 r.22                 -31.2902      -1976.25               
    19 r.23                  2195.48             0               
    20 r.24                 -1920.27      -1964.56               
    21 r.25                  2195.48             0               
    22 r.26                 -1804.52       -1899.7               
    23 r.27                  195.478             0               
    24 r.28                 -1732.71      -1928.19               
    25 r.29                  195.478             0               
    26 r.30                  95.1729      -1900.16               
    27 r.31                  2195.48             0               
    28 r.32                 -1804.52      -1928.59               
    29 r.33                  2195.48             0               
    30 r.34                 -1998.83      -1998.83               
    31 r.35                  195.478             0               
    32 r.36                   1.1656       -1987.7               
    33 r.37                        1             1             = 
    34 r.38                        1             1             = 
    35 r.39                        1             1             = 
    36 r.40                        1             1             = 
    37 r.41                        1             1             = 
    38 r.42                        1             1             = 
    39 r.43                        1             1             = 
    40 r.44                        1             1             = 
    41 r.45                  228.406       28.2582               
    42 r.46                 -228.406      -1973.38               
    43 r.47                  76.7742        41.336               
    44 r.48                 -76.7742      -1959.87               
    45 r.49                  96.8431       47.7349               
    46 r.50                 -99.8431      -1973.38               
    47 r.51                  1959.87       68.5738               
    48 r.52                 -1956.87      -1959.87               
    49 r.53                  43.1082       25.3196               
    50 r.54                 -49.1082      -1973.38               
    51 r.55                  1962.87       38.6982               
    52 r.56                 -1956.87      -1959.87               
    53 r.57                  1973.38       23.7462               
    54 r.58                 -1973.38      -1973.38               
    55 r.59                  35.4382       35.4382               
    56 r.60                 -35.4382      -1959.87               
    57 r.61                 -1799.85       -1896.7               
    58 r.62                 -1728.04      -1925.19               
    59 r.63                 -1848.82       -1896.7               
    60 r.64                 -1777.01      -1925.19               
    61 r.65                  99.8431       99.8431               
    62 r.66                 -99.8431      -1973.38               
    63 r.67                  151.182        71.408               
    64 r.68                 -151.182      -1959.87               
    65 r.69                 -5.83576      -1970.38               
    66 r.70                 -1956.87      -1956.87               
    67 r.71                 -5.83576      -1970.38               
    68 r.72                 -1956.87      -1956.87               
    69 r.73                  1774.59         26.62               
    70 r.74                 -1771.59      -1971.74               
    71 r.75                  1920.23       40.1298               
    72 r.76                 -1923.23      -1958.66               
    73 r.77                  1868.44       47.7349               
    74 r.78                 -1871.44      -1971.74               
    75 r.79                   1883.1       68.5738               
    76 r.80                  -1880.1      -1958.66               
    77 r.81                   1814.7       25.3196               
    78 r.82                  -1820.7      -1971.74               
    79 r.83                   1886.1       38.6982               
    80 r.84                  -1880.1      -1958.66               
    81 r.85                  1744.97       23.7462               
    82 r.86                 -1744.97      -1971.74               
    83 r.87                  1958.66       35.4382               
    84 r.88                 -1958.66      -1958.66               
    85 r.89                  1971.74       100.305               
    86 r.90                 -1971.74      -1971.74               
    87 r.91                  146.218       71.8105               
    88 r.92                 -146.218      -1958.66               
    89 r.93                  1871.44      -1897.16               
    90 r.94                 -28.2582      -1925.59               
    91 r.95                 -25.8967      -1897.16               
    92 r.96                 -1925.59      -1925.59               
    93 r.97                 -1777.43      -1968.74               
    94 r.98                  -1880.1      -1955.66               
    95 r.99                 -1777.43      -1968.74               
    96 r.100                 -1880.1      -1955.66               
    97 r.101                 1903.16         26.62               
    98 r.102                -1900.16      -1952.27               
    99 r.103                 40.1298       40.1298               
   100 r.104                -43.1298      -1931.43               
   101 r.105                 128.563       28.2582               
   102 r.106                -128.563      -1952.27               
   103 r.107                 119.904        41.336               
   104 r.108                -119.904      -1931.43               
   105 r.109                -1949.27      -1949.27               
   106 r.110                -43.2724      -1928.43               
   107 r.111                -1905.99      -1949.27               
   108 r.112                       0      -1928.43               
   109 r.113                 1873.54       23.7462               
   110 r.114                -1873.54      -1952.27               
   111 r.115                  78.568       35.4382               
   112 r.116                 -78.568      -1931.43               
   113 r.117                 100.305       100.305               
   114 r.118                -100.305      -1952.27               
   115 r.119                 266.123       71.8105               
   116 r.120                -266.123      -1931.43               
   117 r.121                       0      -1897.16               
   118 r.122                 -1899.7      -1925.59               
   119 r.123                 94.0073      -1897.16               
   120 r.124                -1805.69      -1925.59               
   121 r.125                -1905.99      -1949.27               
   122 r.126                       0      -1928.43               
   123 r.127                -1905.99      -1949.27               
   124 r.128                       0      -1928.43               
   125 r.129                 1953.89         26.62               
   126 r.130                -1950.89      -1974.68               
   127 r.131                 40.1298       40.1298               
   128 r.132                -43.1298       -1961.3               
   129 r.133                 179.298       28.2582               
   130 r.134                -179.298      -1974.68               
   131 r.135                 119.904        41.336               
   132 r.136                -119.904       -1961.3               
   133 r.137                -1949.27      -1949.27               
   134 r.138                -43.2724      -1928.43               
   135 r.139                -1905.99      -1949.27               
   136 r.140                       0      -1928.43               
   137 r.141                 1924.27       23.7462               
   138 r.142                -1924.27      -1974.68               
   139 r.143                  78.568       35.4382               
   140 r.144                 -78.568       -1961.3               
   141 r.145                  151.04       100.305               
   142 r.146                 -151.04      -1974.68               
   143 r.147                 266.123       71.8105               
   144 r.148                -266.123       -1961.3               
   145 r.149                 50.7349      -1897.16               
   146 r.150                -1848.96      -1925.59               
   147 r.151                 94.0073      -1897.16               
   148 r.152                -1805.69      -1925.59               
   149 r.153                -1956.73      -1968.68               
   150 r.154                       0       -1955.3               
   151 r.155                -1956.73      -1968.68               
   152 r.156                       0       -1955.3               
   153 r.157                   29.62         26.62               
   154 r.158                  -26.62      -1976.25               
   155 r.159                 1961.56       40.1298               
   156 r.160                -1964.56      -1964.56               
   157 r.161                 255.026       28.2582               
   158 r.162                -255.026      -1976.25               
   159 r.163                  41.336        41.336               
   160 r.164                 -41.336      -1964.56               
   161 r.165                 123.463       47.7349               
   162 r.166                -126.463      -1976.25               
   163 r.167                 1924.43       68.5738               
   164 r.168                -1921.43      -1964.56               
   165 r.169                 69.7282       25.3196               
   166 r.170                -75.7282      -1976.25               
   167 r.171                 1927.43       38.6982               
   168 r.172                -1921.43      -1964.56               
   169 r.173                -1773.23       -1896.7               
   170 r.174                -1701.42      -1925.19               
   171 r.175                -1884.26       -1896.7               
   172 r.176                -1812.45      -1925.19               
   173 r.177                 126.463      -1897.16               
   174 r.178                -1773.23      -1925.59               
   175 r.179                 15.4393      -1897.16               
   176 r.180                -1884.26      -1925.59               
   177 r.181                -32.4558      -1970.25               
   178 r.182                -1921.43      -1958.56               
   179 r.183                -32.4558      -1970.25               
   180 r.184                -1921.43      -1958.56               
   181 r.185                -1799.85       -1896.7               
   182 r.186                -1728.04      -1925.19               
   183 r.187                -1848.82       -1896.7               
   184 r.188                -1777.01      -1925.19               
   185 r.189                 28.2582       28.2582               
   186 r.190                -28.2582       -1899.7               
   187 r.191                 1853.78        41.336               
   188 r.192                -1853.78      -1928.19               
   189 r.193                  1896.7       47.7349               
   190 r.194                 -1899.7       -1899.7               
   191 r.195                 1736.88       68.5738               
   192 r.196                -1733.88      -1928.19               
   193 r.197                 1842.96       25.3196               
   194 r.198                -1848.96       -1899.7               
   195 r.199                 1739.88       38.6982               
   196 r.200                -1733.88      -1928.19               
   197 r.201                -1773.23       -1896.7               
   198 r.202                -1701.42      -1925.19               
   199 r.203                -1884.26       -1896.7               
   200 r.204                -1812.45      -1925.19               
   201 r.205                  1899.7       99.8431               
   202 r.206                 -1899.7       -1899.7               
   203 r.207                 1928.19        71.408               
   204 r.208                -1928.19      -1928.19               
   205 r.209                 1903.16         26.62               
   206 r.210                -1900.16      -1900.16               
   207 r.211                 1845.82       40.1298               
   208 r.212                -1848.82      -1928.59               
   209 r.213                 1871.44      -1897.16               
   210 r.214                -28.2582      -1925.59               
   211 r.215                -25.8967      -1897.16               
   212 r.216                -1925.59      -1925.59               
   213 r.217                       0      -1897.16               
   214 r.218                 -1899.7      -1925.59               
   215 r.219                 94.0073      -1897.16               
   216 r.220                -1805.69      -1925.59               
   217 r.221                 50.7349      -1897.16               
   218 r.222                -1848.96      -1925.59               
   219 r.223                 94.0073      -1897.16               
   220 r.224                -1805.69      -1925.59               
   221 r.225                 126.463      -1897.16               
   222 r.226                -1773.23      -1925.59               
   223 r.227                 15.4393      -1897.16               
   224 r.228                -1884.26      -1925.59               
   225 r.229                 100.305       100.305               
   226 r.230                -100.305      -1900.16               
   227 r.231                 71.8105       71.8105               
   228 r.232                -71.8105      -1928.59               
   229 r.233                -5.83576      -1970.38               
   230 r.234                -1956.87      -1956.87               
   231 r.235                -5.83576      -1970.38               
   232 r.236                -1956.87      -1956.87               
   233 r.237                -1777.43      -1968.74               
   234 r.238                 -1880.1      -1955.66               
   235 r.239                -1777.43      -1968.74               
   236 r.240                 -1880.1      -1955.66               
   237 r.241                -1905.99      -1949.27               
   238 r.242                       0      -1928.43               
   239 r.243                -1905.99      -1949.27               
   240 r.244                       0      -1928.43               
   241 r.245                -1956.73      -1968.68               
   242 r.246                       0       -1955.3               
   243 r.247                -1956.73      -1968.68               
   244 r.248                       0       -1955.3               
   245 r.249                -32.4558      -1970.25               
   246 r.250                -1921.43      -1958.56               
   247 r.251                -32.4558      -1970.25               
   248 r.252                -1921.43      -1958.56               

   No. Column name       Activity     Lower bound   Upper bound
------ ------------    ------------- ------------- -------------
     1 tt                    195.478             0               
     2 s_1_1        *              0             0             1 
     3 t_1_1                 200.148             0               
     4 s_1_6        *              1             0             1 
     5 s_2_1        *              1             0             1 
     6 t_2_1                 151.182             0               
     7 s_2_6        *              0             0             1 
     8 s_1_2        *              0             0             1 
     9 t_1_2                 1971.74             0               
    10 s_1_7        *              0             0             1 
    11 s_2_2        *              1             0             1 
    12 t_2_2                  74.408             0               
    13 s_2_7        *              1             0             1 
    14 s_1_3        *              1             0             1 
    15 t_1_3                 100.305             0               
    16 s_2_3        *              0             0             1 
    17 t_2_3                 194.312             0               
    18 s_1_4        *              1             0             1 
    19 t_1_4                  151.04             0               
    20 s_2_4        *              0             0             1 
    21 t_2_4                 194.312             0               
    22 s_1_5        *              0             0             1 
    23 t_1_5                 226.768             0               
    24 s_2_5        *              1             0             1 
    25 t_2_5                 115.744             0               
    26 t_1_6                       0             0               
    27 t_2_6                 1928.19             0               
    28 t_1_7                 100.305             0               
    29 t_2_7                       0             0               
    30 s_1_8        *              1             0             1 
    31 t_1_8                 194.312             0               
    32 s_2_8        *              0             0             1 
    33 t_2_8                 194.312             0               
    34 u_1_1_2      *              1             0             1 
    35 u_2_1_2      *              0             0             1 
    36 u_1_1_3      *              0             0             1 
    37 u_2_1_3      *              1             0             1 
    38 u_1_1_4      *              0             0             1 
    39 u_2_1_4      *              1             0             1 
    40 u_1_1_5      *              1             0             1 
    41 u_2_1_5      *              0             0             1 
    42 u_1_1_7      *              0             0             1 
    43 u_2_1_7      *              0             0             1 
    44 u_1_2_1      *              0             0             1 
    45 u_2_2_1      *              1             0             1 
    46 u_1_2_3      *              0             0             1 
    47 u_2_2_3      *              1             0             1 
    48 u_1_2_4      *              0             0             1 
    49 u_2_2_4      *              1             0             1 
    50 u_1_2_5      *              0             0             1 
    51 u_2_2_5      *              1             0             1 
    52 u_1_2_6      *              0             0             1 
    53 u_2_2_6      *              1             0             1 
    54 u_1_3_1      *              1             0             1 
    55 u_2_3_1      *              0             0             1 
    56 u_1_3_2      *              1             0             1 
    57 u_2_3_2      *              0             0             1 
    58 u_1_3_5      *              1             0             1 
    59 u_2_3_5      *              0             0             1 
    60 u_1_3_6      *              0             0             1 
    61 u_2_3_6      *              1             0             1 
    62 u_1_4_1      *              1             0             1 
    63 u_2_4_1      *              0             0             1 
    64 u_1_4_2      *              1             0             1 
    65 u_2_4_2      *              0             0             1 
    66 u_1_4_5      *              1             0             1 
    67 u_2_4_5      *              0             0             1 
    68 u_1_4_6      *              0             0             1 
    69 u_2_4_6      *              1             0             1 
    70 u_1_5_1      *              0             0             1 
    71 u_2_5_1      *              1             0             1 
    72 u_1_5_2      *              1             0             1 
    73 u_2_5_2      *              0             0             1 
    74 u_1_5_3      *              0             0             1 
    75 u_2_5_3      *              1             0             1 
    76 u_1_5_4      *              0             0             1 
    77 u_2_5_4      *              1             0             1 
    78 u_1_6_2      *              1             0             1 
    79 u_2_6_2      *              0             0             1 
    80 u_1_6_3      *              1             0             1 
    81 u_2_6_3      *              0             0             1 
    82 u_1_6_4      *              1             0             1 
    83 u_2_6_4      *              0             0             1 
    84 u_1_6_7      *              1             0             1 
    85 u_2_6_7      *              0             0             1 
    86 u_1_7_1      *              1             0             1 
    87 u_2_7_1      *              1             0             1 
    88 u_1_7_6      *              0             0             1 
    89 u_2_7_6      *              1             0             1 

Integer feasibility conditions:

KKT.PE: max.abs.err = 4.55e-13 on row 97
        max.rel.err = 1.08e-16 on row 98
        High quality

KKT.PB: max.abs.err = 8.53e-14 on row 113
        max.rel.err = 1.09e-15 on row 185
        High quality

End of output
